p wcnf 140 1500
10 -138 -139 0
8 -135 138 0
8 -132 -138 0
5 -132 -133 0
8 -130 -134 0
6 -130 139 0
10 -129 138 0
6 -128 135 0
3 -127 -138 0
5 -126 -133 0
6 -126 131 0
2 -123 -125 0
3 -123 131 0
4 -122 -128 0
1 -122 127 0
3 -122 128 0
7 -121 125 0
5 -121 133 0
4 -120 -130 0
4 -120 -123 0
9 -120 138 0
7 -119 -138 0
6 -119 127 0
3 -119 139 0
6 -118 -132 0
7 -118 135 0
3 -117 138 0
8 -115 -136 0
7 -115 124 0
3 -114 130 0
2 -113 -139 0
7 -113 -138 0
1 -113 -115 0
9 -113 128 0
1 -112 -139 0
8 -112 130 0
6 -111 -122 0
10 -111 114 0
4 -111 134 0
8 -110 -122 0
5 -110 -114 0
9 -109 -133 0
9 -109 -112 0
7 -109 126 0
3 -108 -133 0
9 -108 -113 0
9 -108 115 0
9 -108 138 0
4 -107 -134 0
3 -107 -123 0
3 -107 128 0
2 -107 133 0
9 -106 -136 0
8 -106 -134 0
4 -106 -123 0
5 -106 128 0
5 -106 138 0
6 -105 -133 0
3 -104 -132 0
2 -104 119 0
8 -103 -134 0
4 -103 115 0
8 -102 -107 0
8 -102 107 0
3 -102 117 0
8 -102 122 0
6 -101 -140 0
8 -101 120 0
8 -100 -111 0
8 -100 110 0
6 -99 -105 0
2 -98 -134 0
7 -98 -120 0
4 -98 -118 0
8 -98 -111 0
10 -98 -108 0
3 -98 -107 0
7 -98 -101 0
9 -98 126 0
6 -98 139 0
9 -97 127 0
2 -97 134 0
7 -96 -101 0
7 -95 101 0
9 -95 138 0
9 -94 -137 0
2 -94 109 0
5 -94 128 0
5 -93 -128 0
4 -93 -111 0
6 -93 -107 0
3 -93 114 0
7 -93 118 0
4 -93 128 0
9 -92 -136 0
9 -92 -118 0
2 -92 95 0
5 -92 107 0
6 -92 112 0
8 -91 -95 0
4 -90 -133 0
2 -90 -101 0
9 -90 -100 0
1 -90 94 0
5 -90 118 0
8 -89 -118 0
1 -89 -99 0
7 -89 -97 0
5 -89 -95 0
9 -89 128 0
3 -89 134 0
3 -89 136 0
2 -88 -128 0
8 -88 -120 0
10 -88 -90 0
1 -88 113 0
8 -88 139 0
2 -87 112 0
5 -86 -120 0
3 -86 -113 0
5 -86 90 0
1 -86 110 0
4 -86 127 0
2 -86 134 0
4 -85 -109 0
4 -85 91 0
1 -85 94 0
5 -85 138 0
8 -84 -129 0
6 -84 -114 0
3 -84 -96 0
2 -84 -95 0
7 -84 132 0
2 -83 -130 0
2 -83 -129 0
3 -83 -100 0
9 -83 -95 0
2 -83 124 0
9 -83 131 0
4 -83 133 0
1 -83 140 0
1 -82 -131 0
6 -82 -95 0
2 -82 93 0
9 -81 -120 0
6 -81 -89 0
2 -81 101 0
7 -81 130 0
7 -80 -135 0
6 -80 -112 0
8 -80 -97 0
2 -80 -85 0
6 -79 -130 0
3 -79 -128 0
4 -79 -111 0
9 -79 -105 0
5 -79 -99 0
4 -79 -86 0
4 -79 82 0
3 -79 136 0
9 -78 -90 0
6 -78 100 0
4 -78 129 0
6 -77 112 0
7 -77 127 0
4 -76 -136 0
8 -76 -128 0
6 -76 -111 0
5 -76 -105 0
7 -76 91 0
9 -76 103 0
5 -76 113 0
7 -75 -138 0
5 -75 -137 0
6 -75 -105 0
6 -75 -95 0
9 -75 -79 0
8 -74 -112 0
2 -74 -105 0
6 -74 -84 0
4 -74 80 0
10 -74 94 0
7 -74 111 0
9 -74 138 0
2 -74 140 0
10 -73 -113 0
8 -73 -108 0
7 -73 -103 0
4 -73 97 0
2 -73 111 0
9 -73 112 0
2 -73 122 0
7 -73 128 0
3 -72 -135 0
8 -72 -118 0
5 -72 -115 0
6 -72 -88 0
6 -72 96 0
10 -72 103 0
1 -72 105 0
2 -72 129 0
8 -72 135 0
6 -71 -111 0
8 -71 -96 0
3 -70 -85 0
2 -70 97 0
4 -70 105 0
2 -70 125 0
9 -69 83 0
5 -69 112 0
7 -68 -130 0
2 -68 -123 0
5 -68 -71 0
5 -68 92 0
2 -68 129 0
6 -67 92 0
4 -67 107 0
9 -67 131 0
3 -67 136 0
7 -66 -137 0
1 -66 -119 0
1 -66 -114 0
8 -66 -106 0
8 -66 -81 0
3 -65 -115 0
6 -65 -111 0
2 -65 -92 0
8 -65 67 0
2 -65 79 0
2 -65 83 0
8 -65 129 0
3 -65 132 0
9 -65 136 0
4 -64 -124 0
10 -64 -123 0
2 -64 -67 0
5 -64 70 0
4 -64 111 0
3 -63 -76 0
4 -63 91 0
8 -63 120 0
10 -63 140 0
5 -62 64 0
3 -62 96 0
4 -62 106 0
6 -62 128 0
8 -61 -139 0
8 -61 -108 0
5 -61 -81 0
10 -61 -80 0
4 -61 -75 0
5 -61 -65 0
1 -61 70 0
3 -61 98 0
3 -61 124 0
3 -61 138 0
8 -60 -120 0
5 -60 -112 0
1 -60 -90 0
9 -60 -68 0
6 -60 123 0
9 -59 -95 0
2 -59 -81 0
5 -59 73 0
3 -59 111 0
2 -59 135 0
6 -59 139 0
7 -58 -137 0
4 -58 -60 0
9 -58 86 0
1 -58 133 0
2 -57 -137 0
8 -57 -100 0
6 -57 112 0
4 -57 113 0
2 -57 120 0
2 -56 -126 0
2 -56 -114 0
9 -56 -96 0
5 -56 -90 0
2 -56 84 0
3 -56 98 0
10 -56 113 0
2 -56 114 0
5 -56 116 0
3 -56 119 0
4 -56 139 0
3 -55 -130 0
7 -55 -125 0
5 -55 -124 0
2 -55 -82 0
3 -55 -80 0
3 -55 -69 0
3 -54 -99 0
7 -54 -93 0
5 -54 -83 0
3 -54 -81 0
3 -54 -73 0
2 -54 -71 0
6 -54 64 0
2 -54 124 0
2 -53 -93 0
8 -53 -71 0
9 -53 59 0
7 -53 66 0
2 -53 67 0
1 -53 70 0
7 -53 91 0
3 -52 -137 0
9 -52 -133 0
3 -52 -81 0
4 -52 -74 0
3 -52 -70 0
3 -52 -61 0
5 -52 -60 0
7 -52 96 0
5 -52 105 0
8 -51 -137 0
9 -51 -124 0
2 -51 -103 0
3 -51 64 0
1 -51 97 0
4 -50 -77 0
5 -50 -75 0
3 -50 -53 0
9 -50 61 0
9 -50 73 0
5 -50 86 0
2 -50 120 0
1 -50 134 0
1 -49 -137 0
3 -49 55 0
2 -49 64 0
8 -49 83 0
2 -49 101 0
8 -49 113 0
9 -49 127 0
2 -49 129 0
6 -49 140 0
2 -48 -73 0
1 -48 85 0
8 -47 -104 0
4 -47 -94 0
3 -47 -91 0
10 -47 -79 0
8 -47 -72 0
9 -47 -67 0
5 -47 116 0
6 -47 118 0
8 -47 137 0
6 -46 -95 0
8 -46 -70 0
8 -46 -63 0
8 -46 -52 0
3 -46 -48 0
10 -46 121 0
7 -46 131 0
1 -46 133 0
5 -45 -71 0
8 -45 -69 0
1 -45 -52 0
5 -45 52 0
10 -45 82 0
3 -45 111 0
3 -45 128 0
1 -44 -59 0
1 -44 -56 0
2 -44 -50 0
2 -44 131 0
6 -43 -58 0
2 -43 -47 0
3 -42 -102 0
4 -42 -98 0
6 -42 -79 0
5 -42 -59 0
3 -42 136 0
4 -41 -89 0
3 -41 -86 0
7 -41 125 0
9 -40 -132 0
1 -40 -116 0
2 -40 -106 0
7 -40 -82 0
8 -40 79 0
10 -40 80 0
8 -40 104 0
8 -39 -97 0
7 -39 -71 0
9 -39 -67 0
3 -39 41 0
5 -39 48 0
9 -39 55 0
7 -39 70 0
5 -39 77 0
2 -39 80 0
9 -38 -138 0
6 -38 -132 0
2 -38 -123 0
10 -38 -90 0
7 -38 -57 0
7 -38 41 0
2 -38 133 0
9 -37 -68 0
10 -37 47 0
6 -37 52 0
3 -37 87 0
3 -37 88 0
9 -37 94 0
5 -36 -116 0
9 -36 -98 0
8 -36 -91 0
6 -36 -69 0
1 -36 39 0
5 -36 47 0
4 -36 59 0
10 -36 79 0
3 -36 86 0
3 -36 91 0
7 -36 98 0
2 -36 116 0
5 -36 120 0
2 -36 140 0
10 -35 -140 0
2 -35 -138 0
6 -35 -119 0
2 -35 -117 0
10 -35 -106 0
2 -35 -99 0
3 -35 -79 0
9 -35 -64 0
8 -35 -39 0
9 -35 -37 0
1 -35 72 0
6 -35 104 0
8 -35 113 0
6 -35 130 0
8 -34 -139 0
1 -34 -128 0
6 -34 -50 0
4 -34 75 0
9 -34 98 0
4 -33 -135 0
9 -33 -115 0
9 -33 -98 0
7 -33 62 0
3 -32 -140 0
8 -32 -116 0
9 -32 -108 0
5 -32 -100 0
5 -32 -99 0
10 -32 -92 0
8 -32 -41 0
6 -32 42 0
9 -32 51 0
9 -32 58 0
2 -32 91 0
1 -32 110 0
9 -32 130 0
3 -32 138 0
3 -32 139 0
9 -31 -118 0
10 -31 -80 0
2 -31 -61 0
9 -31 38 0
6 -31 72 0
9 -31 87 0
5 -31 110 0
5 -31 128 0
9 -30 -138 0
10 -30 -136 0
8 -30 -70 0
8 -30 -39 0
3 -30 35 0
6 -30 37 0
6 -30 44 0
10 -29 -140 0
8 -29 -129 0
5 -29 -102 0
9 -29 -66 0
3 -29 -65 0
9 -29 -41 0
9 -29 -37 0
1 -29 45 0
5 -29 70 0
8 -29 77 0
10 -29 126 0
7 -28 -139 0
8 -28 -104 0
9 -28 -92 0
9 -28 -29 0
1 -28 41 0
8 -28 58 0
9 -28 112 0
2 -28 113 0
7 -28 117 0
5 -28 128 0
10 -27 -134 0
2 -27 -128 0
9 -27 -110 0
9 -27 -87 0
2 -27 -72 0
6 -27 70 0
7 -27 98 0
4 -26 -93 0
2 -26 -78 0
3 -26 -77 0
4 -26 30 0
10 -26 42 0
7 -25 -86 0
3 -25 -82 0
3 -25 -77 0
6 -25 -55 0
2 -25 -49 0
3 -25 -38 0
2 -25 28 0
9 -25 34 0
3 -25 40 0
7 -25 46 0
8 -25 125 0
2 -24 -128 0
6 -24 -107 0
8 -24 -92 0
9 -24 -67 0
5 -24 -60 0
9 -24 44 0
5 -24 49 0
9 -24 71 0
9 -24 91 0
6 -24 97 0
7 -23 -123 0
8 -23 -96 0
7 -23 -95 0
3 -23 -32 0
4 -23 40 0
1 -23 61 0
5 -23 80 0
7 -22 -70 0
4 -22 -40 0
4 -22 -30 0
4 -22 56 0
6 -22 67 0
6 -21 -123 0
9 -21 -86 0
7 -21 -26 0
8 -21 -24 0
9 -21 66 0
6 -21 70 0
10 -21 122 0
7 -21 123 0
4 -20 -138 0
2 -20 -109 0
3 -20 -99 0
2 -20 -41 0
10 -20 -22 0
7 -20 28 0
10 -20 37 0
5 -20 40 0
5 -20 105 0
8 -20 111 0
10 -20 139 0
3 -19 -128 0
6 -19 -110 0
7 -19 -92 0
5 -19 -80 0
10 -19 -73 0
7 -19 -70 0
9 -19 41 0
6 -19 84 0
10 -19 136 0
3 -19 138 0
9 -18 -83 0
6 -18 -58 0
8 -18 -55 0
8 -18 -48 0
3 -18 33 0
6 -18 59 0
7 -18 60 0
8 -18 77 0
6 -18 109 0
4 -18 111 0
1 -17 -19 0
7 -17 36 0
6 -17 58 0
2 -17 71 0
6 -17 75 0
2 -17 133 0
2 -16 -59 0
1 -16 -58 0
7 -16 -42 0
9 -16 -40 0
10 -16 -36 0
8 -16 -33 0
5 -16 -24 0
7 -16 36 0
3 -16 40 0
5 -16 48 0
4 -16 116 0
2 -16 120 0
10 -15 -69 0
4 -15 -48 0
4 -15 56 0
9 -15 62 0
8 -14 -137 0
2 -14 -119 0
7 -14 -117 0
1 -14 15 0
7 -14 56 0
4 -14 76 0
8 -14 81 0
2 -14 125 0
7 -13 -120 0
8 -13 -107 0
8 -13 -69 0
3 -13 -56 0
10 -13 -44 0
4 -13 -40 0
5 -13 -36 0
1 -13 -32 0
4 -13 -22 0
1 -13 15 0
9 -13 46 0
4 -13 70 0
8 -13 71 0
5 -13 140 0
10 -12 -86 0
2 -12 -63 0
8 -12 82 0
4 -12 100 0
2 -12 111 0
8 -12 134 0
6 -11 -112 0
5 -11 -83 0
7 -11 -36 0
5 -11 -27 0
6 -11 13 0
4 -11 28 0
5 -11 32 0
2 -11 84 0
7 -11 94 0
3 -11 95 0
4 -10 -138 0
4 -10 -118 0
1 -10 -93 0
1 -10 -41 0
6 -10 68 0
10 -10 99 0
4 -10 121 0
10 -10 127 0
10 -10 134 0
7 -9 -140 0
10 -9 -47 0
9 -9 -44 0
2 -9 13 0
8 -9 45 0
4 -9 47 0
1 -9 67 0
9 -9 97 0
2 -9 101 0
4 -9 116 0
1 -8 -105 0
10 -8 -32 0
9 -8 -26 0
5 -8 25 0
7 -8 112 0
4 -7 -109 0
1 -7 -92 0
9 -7 -56 0
8 -7 -39 0
2 -7 21 0
6 -7 31 0
10 -7 49 0
5 -7 117 0
10 -6 -114 0
10 -6 -104 0
5 -6 -100 0
6 -6 -81 0
9 -6 -65 0
9 -6 -44 0
6 -6 -35 0
9 -6 9 0
6 -6 27 0
6 -6 44 0
9 -6 83 0
7 -6 95 0
4 -6 101 0
3 -6 105 0
7 -5 -127 0
3 -5 -95 0
4 -5 -28 0
1 -5 -11 0
3 -5 44 0
4 -5 55 0
9 -5 65 0
7 -5 110 0
10 -5 120 0
3 -5 140 0
7 -4 -133 0
9 -4 -128 0
1 -4 -127 0
9 -4 -95 0
5 -4 -57 0
10 -4 -40 0
4 -4 17 0
5 -4 19 0
9 -4 32 0
8 -4 33 0
10 -4 99 0
9 -4 110 0
7 -4 132 0
6 -3 -129 0
8 -3 -111 0
3 -3 -107 0
1 -3 -85 0
6 -3 -82 0
9 -3 -46 0
4 -3 8 0
8 -3 14 0
6 -3 19 0
6 -3 30 0
3 -3 44 0
6 -3 45 0
9 -3 117 0
5 -3 132 0
6 -2 -133 0
6 -2 -105 0
5 -2 -63 0
8 -2 -58 0
4 -2 -22 0
4 -2 -16 0
8 -2 -10 0
2 -2 34 0
8 -2 59 0
8 -2 91 0
5 -2 109 0
3 -1 -139 0
7 -1 -130 0
3 -1 -120 0
3 -1 -42 0
6 -1 -4 0
9 -1 20 0
8 -1 24 0
3 -1 26 0
2 -1 31 0
8 -1 32 0
9 -1 48 0
1 -1 49 0
3 -1 67 0
7 -1 124 0
6 -1 125 0
8 -1 129 0
9 1 -39 0
3 1 -38 0
7 1 18 0
4 1 35 0
7 1 109 0
3 1 131 0
8 2 -98 0
5 2 -92 0
5 2 -91 0
2 2 -77 0
3 2 -35 0
7 2 8 0
10 2 14 0
1 2 16 0
2 2 33 0
3 2 118 0
7 2 124 0
4 3 -93 0
5 3 -68 0
3 3 -42 0
3 3 66 0
3 3 78 0
5 3 94 0
4 3 98 0
1 3 106 0
4 4 -138 0
4 4 -132 0
3 4 -125 0
1 4 -101 0
9 4 -81 0
1 4 -6 0
9 4 16 0
2 4 32 0
7 4 39 0
3 4 75 0
8 4 99 0
9 5 -126 0
1 5 -120 0
4 5 -113 0
4 5 -67 0
2 5 -65 0
6 5 14 0
10 5 52 0
2 5 89 0
6 5 112 0
2 6 -132 0
4 6 -129 0
3 6 -107 0
5 6 -97 0
8 6 -84 0
5 6 -83 0
7 6 -36 0
1 6 -12 0
9 6 12 0
10 6 24 0
2 6 50 0
3 6 56 0
4 6 70 0
4 6 93 0
4 6 110 0
4 6 124 0
4 6 127 0
2 6 128 0
5 6 135 0
10 7 -112 0
4 7 -110 0
3 7 -108 0
8 7 -37 0
5 7 -27 0
5 7 -15 0
2 7 19 0
6 7 24 0
1 7 40 0
2 7 99 0
7 7 102 0
7 7 108 0
3 7 109 0
9 7 133 0
9 8 -129 0
7 8 -126 0
7 8 -75 0
4 8 -69 0
4 8 -67 0
8 8 -40 0
3 8 -37 0
4 8 -33 0
8 8 -31 0
6 8 -26 0
7 8 13 0
2 8 17 0
8 8 29 0
10 8 49 0
5 8 96 0
10 8 99 0
4 8 106 0
4 9 -114 0
4 9 -105 0
6 9 57 0
3 9 112 0
8 9 118 0
2 10 -122 0
4 10 -105 0
4 10 -97 0
2 10 -36 0
6 10 -18 0
9 10 18 0
8 10 20 0
8 10 56 0
9 10 85 0
7 10 119 0
5 11 -134 0
6 11 -131 0
10 11 -123 0
8 11 -113 0
4 11 -47 0
3 11 -44 0
2 11 -13 0
2 11 38 0
7 11 45 0
8 11 58 0
3 11 72 0
6 11 79 0
8 11 99 0
6 11 109 0
5 11 126 0
2 12 -126 0
10 12 -122 0
8 12 -105 0
7 12 -101 0
3 12 -68 0
6 12 -62 0
8 12 56 0
6 12 57 0
9 12 68 0
9 12 81 0
1 12 95 0
8 13 -133 0
7 13 -115 0
8 13 -113 0
7 13 -110 0
4 13 -107 0
3 13 -101 0
3 13 -76 0
3 13 -61 0
1 13 -18 0
5 13 38 0
5 13 107 0
2 13 119 0
6 14 -138 0
3 14 -70 0
9 14 26 0
8 14 48 0
7 14 63 0
6 14 74 0
4 14 80 0
2 15 -117 0
7 15 -110 0
4 15 -80 0
10 15 -24 0
5 15 19 0
5 15 128 0
6 16 -129 0
3 16 -84 0
1 16 -63 0
5 16 22 0
2 16 29 0
2 16 44 0
3 16 47 0
9 16 50 0
9 16 59 0
8 16 87 0
2 16 126 0
2 17 -133 0
1 17 -97 0
5 17 -91 0
2 17 -78 0
5 17 -60 0
9 17 -53 0
3 17 -46 0
1 17 64 0
1 17 80 0
2 17 85 0
8 17 90 0
7 18 -129 0
7 18 -70 0
1 18 -54 0
9 18 -41 0
4 18 -29 0
4 18 19 0
9 18 20 0
8 18 43 0
8 18 50 0
5 19 -123 0
10 19 -85 0
8 19 -69 0
9 19 -50 0
2 19 -22 0
9 19 30 0
2 19 43 0
10 19 93 0
8 19 125 0
9 20 -122 0
2 20 -121 0
9 20 -38 0
9 20 63 0
5 20 68 0
10 20 80 0
5 20 89 0
4 20 126 0
3 21 -139 0
5 21 -91 0
4 21 -65 0
3 21 -54 0
2 21 -48 0
2 21 -38 0
9 21 -26 0
2 21 23 0
9 21 36 0
3 21 46 0
5 21 81 0
8 21 91 0
1 21 94 0
4 21 96 0
3 21 106 0
10 21 114 0
2 21 126 0
2 21 130 0
2 21 133 0
10 22 -129 0
3 22 -75 0
2 22 -38 0
7 22 35 0
2 22 53 0
3 22 61 0
6 22 88 0
2 23 -133 0
7 23 -98 0
6 23 -70 0
5 23 -62 0
1 23 -55 0
8 23 85 0
9 23 121 0
4 23 131 0
10 23 133 0
10 24 -124 0
5 24 -82 0
9 24 -76 0
2 24 -49 0
4 24 -40 0
2 24 -28 0
7 24 27 0
3 24 53 0
2 24 90 0
9 24 93 0
5 25 -126 0
2 25 -60 0
1 25 -47 0
6 25 -28 0
3 25 131 0
10 26 -139 0
8 26 -97 0
4 26 90 0
7 26 110 0
9 26 118 0
6 26 132 0
3 27 -140 0
10 27 -121 0
2 27 -54 0
8 27 -52 0
5 27 59 0
2 27 92 0
6 27 133 0
3 28 -134 0
6 28 -120 0
6 28 -114 0
3 28 61 0
10 28 75 0
5 28 85 0
4 28 138 0
4 29 -127 0
6 29 -120 0
9 29 -92 0
6 29 -76 0
7 29 -72 0
9 29 -53 0
9 29 -43 0
9 29 35 0
9 29 73 0
5 29 90 0
2 29 110 0
9 29 119 0
3 30 -82 0
5 30 -70 0
6 30 -64 0
2 30 70 0
10 30 96 0
8 30 113 0
1 30 137 0
2 31 -100 0
7 31 -71 0
5 31 -63 0
4 31 61 0
3 31 74 0
7 31 130 0
8 32 -131 0
7 32 -112 0
9 32 -108 0
8 32 -52 0
2 32 37 0
3 32 68 0
2 32 81 0
7 33 -89 0
3 33 -85 0
7 33 -66 0
5 33 -57 0
1 33 -38 0
6 33 56 0
4 33 87 0
9 33 104 0
1 33 140 0
5 34 -108 0
8 34 -92 0
3 34 -89 0
9 34 -83 0
4 34 -58 0
4 34 38 0
9 34 72 0
2 34 85 0
4 34 93 0
10 34 124 0
8 34 125 0
9 34 137 0
3 35 -129 0
9 35 -112 0
6 35 -50 0
2 35 43 0
7 35 73 0
5 35 98 0
9 35 133 0
8 36 -111 0
7 36 -98 0
10 36 -95 0
6 36 -87 0
9 36 109 0
6 36 118 0
10 36 123 0
9 37 64 0
2 37 89 0
3 37 110 0
8 37 119 0
2 37 120 0
7 37 125 0
6 37 140 0
4 38 -137 0
6 38 -81 0
9 38 -79 0
7 38 -41 0
5 38 84 0
1 38 106 0
2 38 138 0
4 39 -117 0
8 39 -74 0
9 39 66 0
7 39 80 0
7 39 95 0
5 39 102 0
7 39 113 0
4 39 135 0
9 40 -69 0
6 40 128 0
3 40 131 0
7 41 -131 0
6 41 -125 0
7 41 -113 0
6 41 -102 0
3 41 -98 0
7 41 -47 0
5 41 51 0
4 41 96 0
9 41 110 0
4 41 121 0
5 41 123 0
6 42 -131 0
9 42 -94 0
9 42 -89 0
2 42 68 0
8 42 78 0
6 42 83 0
6 42 90 0
8 42 97 0
7 42 101 0
9 42 103 0
6 42 115 0
6 43 -119 0
5 43 -99 0
3 43 -96 0
10 43 -47 0
3 43 48 0
7 43 95 0
9 43 102 0
8 43 103 0
9 43 137 0
6 44 -138 0
4 44 -79 0
6 44 -57 0
2 44 51 0
6 44 107 0
3 44 126 0
6 44 137 0
9 45 -123 0
2 45 -78 0
9 45 -66 0
4 45 48 0
7 45 53 0
8 45 91 0
3 46 -131 0
8 46 -68 0
6 46 66 0
8 46 73 0
4 46 77 0
4 46 128 0
5 47 -115 0
2 47 -71 0
9 47 58 0
9 47 73 0
7 47 89 0
2 48 -131 0
9 48 56 0
9 48 80 0
8 48 85 0
8 48 101 0
7 48 115 0
7 49 -138 0
4 49 -133 0
1 49 -124 0
3 49 -122 0
5 49 -102 0
6 49 52 0
5 49 84 0
10 50 -70 0
5 50 -66 0
6 50 63 0
9 50 67 0
8 50 71 0
3 50 95 0
6 50 117 0
1 50 124 0
9 50 140 0
2 51 -54 0
9 51 56 0
3 51 59 0
5 51 71 0
3 51 75 0
4 51 106 0
4 51 111 0
2 51 112 0
10 51 116 0
6 52 -130 0
2 52 -117 0
9 52 -94 0
4 52 -75 0
9 53 60 0
5 53 65 0
10 53 76 0
3 53 103 0
5 53 128 0
3 54 -109 0
7 54 -68 0
1 54 125 0
6 54 140 0
7 55 -138 0
6 55 -59 0
2 55 59 0
6 55 63 0
4 55 100 0
3 55 128 0
2 55 140 0
5 56 -117 0
3 56 -97 0
3 56 -83 0
3 56 -73 0
5 56 75 0
8 56 76 0
5 56 103 0
8 56 114 0
2 56 117 0
7 56 125 0
8 57 -130 0
6 57 -93 0
7 57 -87 0
7 57 -73 0
9 57 96 0
6 57 113 0
2 57 121 0
9 57 124 0
8 58 -115 0
6 58 -92 0
2 58 -68 0
5 58 112 0
7 59 -135 0
7 59 -116 0
2 59 -70 0
2 59 68 0
8 59 129 0
7 60 119 0
5 61 -126 0
1 61 -118 0
8 61 62 0
9 61 66 0
3 61 95 0
2 61 103 0
2 61 110 0
7 61 119 0
8 61 126 0
6 62 -124 0
5 62 63 0
9 62 69 0
3 62 79 0
4 62 102 0
6 62 114 0
9 63 -121 0
9 63 -117 0
5 63 -83 0
5 63 77 0
1 63 89 0
4 64 -103 0
4 64 -84 0
7 64 -74 0
5 64 66 0
8 64 68 0
3 64 116 0
2 65 -132 0
10 65 78 0
5 65 81 0
9 65 85 0
7 66 -128 0
9 66 -98 0
10 66 107 0
5 66 110 0
8 66 131 0
3 67 -110 0
6 67 -85 0
9 67 -84 0
9 67 -83 0
4 67 -71 0
5 67 -70 0
5 67 89 0
4 67 127 0
7 68 -137 0
7 68 -111 0
8 68 -86 0
6 68 -69 0
7 68 86 0
3 69 -137 0
2 69 -113 0
7 69 -96 0
6 69 126 0
4 70 -121 0
3 70 -106 0
1 70 -103 0
2 70 -100 0
6 70 -94 0
3 70 96 0
2 71 -129 0
10 71 -94 0
2 71 -76 0
8 71 106 0
9 71 140 0
2 72 -132 0
3 72 77 0
7 72 125 0
4 73 -131 0
8 73 -94 0
6 73 -80 0
4 73 105 0
2 73 129 0
2 73 132 0
8 74 -129 0
5 74 -102 0
8 74 -75 0
5 74 75 0
3 74 97 0
5 74 98 0
2 75 -117 0
5 75 -108 0
5 75 -84 0
8 75 91 0
1 75 107 0
9 75 111 0
10 76 -127 0
2 76 -118 0
10 76 86 0
6 76 88 0
3 76 89 0
2 76 97 0
5 76 116 0
4 77 -102 0
9 77 98 0
4 77 99 0
5 77 116 0
2 78 -125 0
1 78 92 0
9 78 100 0
8 78 103 0
7 79 -128 0
3 79 130 0
9 79 140 0
8 80 -83 0
9 80 82 0
4 80 111 0
6 80 118 0
4 80 121 0
6 80 138 0
10 81 118 0
5 81 126 0
9 82 -129 0
5 82 -100 0
3 82 -96 0
10 82 104 0
3 82 106 0
3 82 127 0
1 83 -134 0
3 83 -128 0
7 83 -107 0
4 83 -103 0
4 83 -96 0
2 83 84 0
7 83 117 0
3 83 132 0
6 84 -114 0
2 84 -107 0
3 84 136 0
6 85 -118 0
1 85 -107 0
2 86 -118 0
3 86 118 0
3 87 -127 0
10 87 98 0
9 87 99 0
2 87 134 0
4 88 -123 0
5 88 -89 0
5 88 108 0
8 88 109 0
5 88 116 0
9 89 -94 0
8 89 115 0
8 90 -138 0
2 90 -105 0
7 90 99 0
2 90 100 0
3 90 106 0
7 90 132 0
4 91 -107 0
9 91 130 0
10 91 137 0
7 92 -127 0
2 92 98 0
7 92 110 0
9 92 124 0
6 92 135 0
8 93 -130 0
3 93 -109 0
2 94 -130 0
8 94 -128 0
3 94 -112 0
4 94 -110 0
1 94 97 0
3 94 100 0
3 94 113 0
2 94 130 0
6 95 -123 0
7 95 -100 0
6 95 110 0
4 95 120 0
2 96 -100 0
5 96 120 0
1 96 129 0
10 96 133 0
6 97 -134 0
7 97 -106 0
1 98 -104 0
8 98 -99 0
5 98 99 0
4 98 111 0
7 98 131 0
5 99 -130 0
1 99 139 0
8 100 -108 0
2 100 121 0
10 101 -129 0
4 101 -124 0
9 101 -114 0
2 102 111 0
6 102 126 0
8 103 -128 0
5 103 113 0
9 103 134 0
8 104 113 0
7 104 115 0
2 105 -135 0
8 105 -133 0
2 105 -124 0
8 105 108 0
4 105 115 0
5 105 126 0
9 106 -129 0
8 106 107 0
6 106 115 0
9 107 -117 0
4 107 109 0
3 108 -130 0
9 108 -125 0
2 108 110 0
7 108 136 0
4 109 -128 0
8 109 124 0
2 109 127 0
4 112 -115 0
5 112 113 0
3 113 -122 0
4 113 126 0
9 114 -124 0
2 115 -138 0
5 115 -117 0
4 116 119 0
8 116 123 0
9 116 132 0
3 118 -124 0
6 118 -119 0
5 118 129 0
4 119 -137 0
5 119 120 0
7 119 123 0
2 121 -134 0
8 122 127 0
2 122 128 0
2 122 129 0
6 123 -129 0
7 125 -128 0
10 125 140 0
9 126 128 0
9 127 -138 0
9 127 -137 0
10 127 136 0
6 129 -140 0
3 129 136 0
7 133 -135 0
7 135 -140 0
6 138 -140 0
